100
128
11
35
48
10
6
40
32
54
35
15
26
15
55
50
36
44
41
59
30
42
52
64
39
23
8
28
38
61
11
24
40
64
10
16
33
32
13
45
44
26
30
1
10
52
20
59
11
10
40
44
16
39
52
35
63
23
41
22
22
55
32
36
41
29
46
28
14
40
30
1
44
52
19
45
45
17
50
20
58
21
45
43
56
60
51
23
54
48
33
64
64
45
39
40
44
4
39
12
64
64